NAME : instances/clustered-mixed-tsp/instance-83.tsp
COMMENT : No Comment
TYPE : TSP
DIMENSION: 48
EDGE_WEIGHT_TYPE : EUC_2D
NODE_COORD_SECTION
1 360 953 
2 -64 347 
3 371 402 
4 624 453 
5 243 -13 
6 920 922 
7 1135 779 
8 774 185 
9 624 608 
10 386 557 
11 640 742 
12 228 172 
13 211 276 
14 374 533 
15 511 161 
16 623 497 
17 460 1108 
18 440 988 
19 -64 302 
20 36 431 
21 959 335 
22 1334 485 
23 -109 837 
24 688 192 
25 -244 1041 
26 644 195 
27 869 160 
28 500 1138 
29 770 824 
30 649 358 
31 71 1001 
32 133 382 
33 -9 787 
34 980 899 
35 151 817 
36 709 335 
37 311 661 
38 955 517 
39 850 703 
40 316 442 
41 1109 620 
42 533 582 
43 629 588 
44 894 65 
45 606 341 
46 433 -163 
47 544 493 
48 -119 856 
EOF
